NAME: random-85-24456
TYPE: TSP
COMMENT: size=85 seed=24456
DIMENSION: 172
EDGE_WEIGHT_TYPE: EUC_2D
NODE_COORD_SECTION
+0 992 792
-0 992 792
+1 317 994
-1 14 874
+2 924 178
-2 74 46
+3 18 437
-3 443 130
+4 901 788
-4 768 874
+5 298 699
-5 916 754
+6 989 206
-6 41 944
+7 165 4
-7 718 576
+8 26 232
-8 713 179
+9 687 738
-9 332 78
+10 425 669
-10 777 888
+11 509 1
-11 759 4
+12 621 8
-12 441 867
+13 543 683
-13 66 856
+14 538 785
-14 635 561
+15 4 10
-15 322 50
+16 793 208
-16 836 2
+17 802 907
-17 373 418
+18 488 772
-18 555 558
+19 964 488
-19 719 172
+20 925 809
-20 788 564
+21 1 708
-21 645 444
+22 682 578
-22 887 411
+23 432 48
-23 880 313
+24 677 59
-24 586 438
+25 876 411
-25 648 1
+26 399 188
-26 631 256
+27 774 294
-27 196 236
+28 106 199
-28 753 864
+29 923 603
-29 142 589
+30 985 387
-30 633 891
+31 41 135
-31 289 731
+32 55 717
-32 828 378
+33 20 551
-33 307 522
+34 933 296
-34 56 543
+35 183 781
-35 681 911
+36 487 828
-36 44 319
+37 358 27
-37 76 600
+38 266 869
-38 895 5
+39 378 791
-39 986 23
+40 621 539
-40 641 530
+41 157 867
-41 110 833
+42 259 506
-42 480 291
+43 190 526
-43 25 742
+44 164 816
-44 744 134
+45 651 485
-45 431 889
+46 40 752
-46 36 44
+47 389 229
-47 989 77
+48 259 122
-48 852 816
+49 50 338
-49 256 616
+50 961 589
-50 781 949
+51 306 115
-51 375 141
+52 801 157
-52 880 693
+53 833 398
-53 946 69
+54 894 399
-54 83 498
+55 564 975
-55 563 538
+56 543 5
-56 328 976
+57 176 457
-57 760 758
+58 470 316
-58 869 619
+59 255 11
-59 521 522
+60 54 289
-60 729 367
+61 418 628
-61 458 116
+62 451 705
-62 806 341
+63 737 443
-63 21 39
+64 491 315
-64 843 999
+65 25 298
-65 240 374
+66 76 476
-66 461 926
+67 718 197
-67 510 469
+68 702 535
-68 415 170
+69 135 34
-69 643 100
+70 335 300
-70 547 670
+71 528 327
-71 49 801
+72 762 469
-72 378 345
+73 648 265
-73 168 997
+74 333 98
-74 493 164
+75 699 933
-75 949 219
+76 540 501
-76 223 948
+77 891 304
-77 777 346
+78 730 443
-78 54 72
+79 586 978
-79 125 45
+80 281 873
-80 64 480
+81 397 350
-81 95 31
+82 646 336
-82 74 150
+83 595 208
-83 462 52
+84 814 402
-84 66 609
+85 317 794
-85 984 730
PRECEDENCE_SECTION
+0 -0
+1 -1
+2 -2
+3 -3
+4 -4
+5 -5
+6 -6
+7 -7
+8 -8
+9 -9
+10 -10
+11 -11
+12 -12
+13 -13
+14 -14
+15 -15
+16 -16
+17 -17
+18 -18
+19 -19
+20 -20
+21 -21
+22 -22
+23 -23
+24 -24
+25 -25
+26 -26
+27 -27
+28 -28
+29 -29
+30 -30
+31 -31
+32 -32
+33 -33
+34 -34
+35 -35
+36 -36
+37 -37
+38 -38
+39 -39
+40 -40
+41 -41
+42 -42
+43 -43
+44 -44
+45 -45
+46 -46
+47 -47
+48 -48
+49 -49
+50 -50
+51 -51
+52 -52
+53 -53
+54 -54
+55 -55
+56 -56
+57 -57
+58 -58
+59 -59
+60 -60
+61 -61
+62 -62
+63 -63
+64 -64
+65 -65
+66 -66
+67 -67
+68 -68
+69 -69
+70 -70
+71 -71
+72 -72
+73 -73
+74 -74
+75 -75
+76 -76
+77 -77
+78 -78
+79 -79
+80 -80
+81 -81
+82 -82
+83 -83
+84 -84
+85 -85
EOF
